max: Z; 
r0 >= 0.0; 
r1 >= 0.0; 
r2 >= 0.0; 
r3 >= 0.0; 
r4 >= 0.0; 
r5 >= 0.0; 
r6 >= 0.0; 
r7 >= 0.0; 
r8 >= 0.0; 
r9 >= 0.0; 
r10 >= 0.0; 
r11 >= 0.0; 
r12 >= 0.0; 
r13 >= 0.0; 
r14 >= 0.0; 
r15 >= 0.0; 
r16 >= 0.0; 
r17 >= 0.0; 
r18 >= 0.0; 
r19 >= 0.0; 
r20 >= 0.0; 
r21 >= 0.0; 
r22 >= 0.0; 
r23 >= 0.0; 
r24 >= 0.0; 
r25 >= 0.0; 
r26 >= 0.0; 
r27 >= 0.0; 
r28 >= 0.0; 
r29 >= 0.0; 
r30 >= 0.0; 
r31 >= 0.0; 
r32 >= 0.0; 
r33 >= 0.0; 
r34 >= 0.0; 
r35 >= 0.0; 
r36 >= 0.0; 
r37 >= 0.0; 
r38 >= 0.0; 
r39 >= 0.0; 
r40 >= 0.0; 
r41 >= 0.0; 
r42 >= 0.0; 
r43 >= 0.0; 
r44 >= 0.0; 
r45 >= 0.0; 
r46 >= 0.0; 
r47 >= 0.0; 
r48 >= 0.0; 
r49 >= 0.0; 
r50 >= 0.0; 
r51 >= 0.0; 
r52 >= 0.0; 
r53 >= 0.0; 
r54 >= 0.0; 
r55 >= 0.0; 
r56 >= 0.0; 
r57 >= 0.0; 
r58 >= 0.0; 
r59 >= 0.0; 
r60 >= 0.0; 
r61 >= 0.0; 
r62 >= 0.0; 
r63 >= 0.0; 
r64 >= 0.0; 
r65 >= 0.0; 
r66 >= 0.0; 
r67 >= 0.0; 
r68 >= 0.0; 
r69 >= 0.0; 
r70 >= 0.0; 
r71 >= 0.0; 
r72 >= 0.0; 
r73 >= 0.0; 
r74 >= 0.0; 
r75 >= 0.0; 
r76 >= 0.0; 
r77 >= 0.0; 
r78 >= 0.0; 
r79 >= 0.0; 
r80 >= 0.0; 
r81 >= 0.0; 
r82 >= 0.0; 
r83 >= 0.0; 
r84 >= 0.0; 
r85 >= 0.0; 
r86 >= 0.0; 
r87 >= 0.0; 
r88 >= 0.0; 
r89 >= 0.0; 
r90 >= 0.0; 
r91 >= 0.0; 
r92 >= 0.0; 
r93 >= 0.0; 
r94 >= 0.0; 
r95 >= 0.0; 
r96 >= 0.0; 
r97 >= 0.0; 
r98 >= 0.0; 
r99 >= 0.0; 
r100 >= 0.0; 
r101 >= 0.0; 
r102 >= 0.0; 
r103 >= 0.0; 
r104 >= 0.0; 
r105 >= 0.0; 
r106 >= 0.0; 
r107 >= 0.0; 
r108 >= 0.0; 
r109 >= 0.0; 
r110 >= 0.0; 
r111 >= 0.0; 
r112 >= 0.0; 
r113 >= 0.0; 
r114 >= 0.0; 
r115 >= 0.0; 
r116 >= 0.0; 
r117 >= 0.0; 
r118 >= 0.0; 
r119 >= 0.0; 
r0+r3 <= 100.0; 
r0+r85 <= 100.0; 
r0 <= 100.0; 
r1 <= 100.0; 
r1 <= 100.0; 
r2 <= 100.0; 
r2 <= 100.0; 
r2+r60 <= 100.0; 
r3 <= 100.0; 
r3 <= 100.0; 
r4 <= 100.0; 
r4 <= 100.0; 
r4 <= 100.0; 
r5 <= 100.0; 
r5 <= 100.0; 
r6 <= 100.0; 
r6 <= 100.0; 
r6 <= 100.0; 
r7 <= 100.0; 
r7 <= 100.0; 
r7 <= 100.0; 
r8 <= 100.0; 
r8 <= 100.0; 
r9 <= 100.0; 
r9+r88 <= 100.0; 
r9 <= 100.0; 
r10 <= 100.0; 
r10 <= 100.0; 
r10 <= 100.0; 
r11 <= 100.0; 
r11 <= 100.0; 
r12+r13 <= 100.0; 
r12 <= 100.0; 
r13 <= 100.0; 
r14 <= 100.0; 
r14 <= 100.0; 
r14 <= 100.0; 
r15 <= 100.0; 
r15+r25 <= 100.0; 
r16 <= 100.0; 
r16 <= 100.0; 
r16 <= 100.0; 
r17+r23+r24 <= 100.0; 
r17 <= 100.0; 
r18 <= 100.0; 
r18+r20 <= 100.0; 
r18 <= 100.0; 
r19+r112 <= 100.0; 
r19+r112 <= 100.0; 
r19 <= 100.0; 
r20 <= 100.0; 
r20 <= 100.0; 
r21 <= 100.0; 
r21 <= 100.0; 
r22 <= 100.0; 
r22 <= 100.0; 
r22 <= 100.0; 
r23 <= 100.0; 
r23 <= 100.0; 
r24 <= 100.0; 
r25 <= 100.0; 
r26 <= 100.0; 
r26 <= 100.0; 
r26+r56 <= 100.0; 
r27 <= 100.0; 
r27+r60 <= 100.0; 
r28+r43 <= 100.0; 
r28 <= 100.0; 
r29+r62+r63 <= 100.0; 
r29 <= 100.0; 
r30 <= 100.0; 
r30 <= 100.0; 
r30 <= 100.0; 
r31 <= 100.0; 
r32 <= 100.0; 
r32+r34 <= 100.0; 
r32 <= 100.0; 
r33 <= 100.0; 
r33 <= 100.0; 
r33 <= 100.0; 
r34 <= 100.0; 
r35 <= 100.0; 
r35 <= 100.0; 
r35 <= 100.0; 
r36 <= 100.0; 
r36 <= 100.0; 
r36+r61 <= 100.0; 
r37 <= 100.0; 
r37 <= 100.0; 
r37 <= 100.0; 
r38 <= 100.0; 
r38 <= 100.0; 
r38 <= 100.0; 
r39 <= 100.0; 
r39 <= 100.0; 
r40 <= 100.0; 
r40 <= 100.0; 
r40+r41 <= 100.0; 
r41 <= 100.0; 
r42 <= 100.0; 
r42 <= 100.0; 
r42 <= 100.0; 
r43 <= 100.0; 
r44 <= 100.0; 
r44 <= 100.0; 
r45 <= 100.0; 
r45 <= 100.0; 
r45 <= 100.0; 
r46 <= 100.0; 
r46+r115 <= 100.0; 
r46 <= 100.0; 
r47 <= 100.0; 
r47 <= 100.0; 
r47+r74 <= 100.0; 
r48 <= 100.0; 
r48 <= 100.0; 
r48 <= 100.0; 
r49 <= 100.0; 
r49 <= 100.0; 
r49 <= 100.0; 
r50+r55 <= 100.0; 
r50 <= 100.0; 
r50 <= 100.0; 
r51+r113 <= 100.0; 
r51 <= 100.0; 
r51+r54 <= 100.0; 
r52 <= 100.0; 
r52+r111 <= 100.0; 
r52 <= 100.0; 
r53+r89 <= 100.0; 
r53 <= 100.0; 
r53 <= 100.0; 
r54 <= 100.0; 
r54 <= 100.0; 
r55 <= 100.0; 
r55 <= 100.0; 
r56 <= 100.0; 
r57 <= 100.0; 
r57 <= 100.0; 
r58 <= 100.0; 
r58 <= 100.0; 
r59 <= 100.0; 
r59 <= 100.0; 
r59 <= 100.0; 
r60 <= 100.0; 
r61+r100 <= 100.0; 
r61 <= 100.0; 
r62 <= 100.0; 
r62 <= 100.0; 
r63 <= 100.0; 
r63 <= 100.0; 
r64 <= 100.0; 
r65 <= 100.0; 
r65 <= 100.0; 
r66+r69 <= 100.0; 
r66 <= 100.0; 
r66 <= 100.0; 
r67 <= 100.0; 
r67 <= 100.0; 
r67 <= 100.0; 
r68 <= 100.0; 
r68+r109 <= 100.0; 
r68 <= 100.0; 
r69 <= 100.0; 
r69 <= 100.0; 
r70 <= 100.0; 
r70+r73 <= 100.0; 
r70 <= 100.0; 
r71 <= 100.0; 
r71 <= 100.0; 
r72 <= 100.0; 
r73 <= 100.0; 
r74 <= 100.0; 
r75 <= 100.0; 
r75 <= 100.0; 
r76+r109 <= 100.0; 
r76 <= 100.0; 
r76 <= 100.0; 
r77 <= 100.0; 
r77 <= 100.0; 
r78 <= 100.0; 
r78 <= 100.0; 
r78 <= 100.0; 
r79 <= 100.0; 
r79 <= 100.0; 
r80 <= 100.0; 
r80 <= 100.0; 
r80 <= 100.0; 
r81 <= 100.0; 
r81 <= 100.0; 
r82 <= 100.0; 
r82 <= 100.0; 
r82 <= 100.0; 
r83 <= 100.0; 
r83+r104 <= 100.0; 
r84 <= 100.0; 
r84+r114 <= 100.0; 
r85+r99 <= 100.0; 
r85 <= 100.0; 
r86 <= 100.0; 
r86 <= 100.0; 
r86 <= 100.0; 
r87 <= 100.0; 
r87 <= 100.0; 
r88 <= 100.0; 
r89 <= 100.0; 
r89 <= 100.0; 
r90 <= 100.0; 
r90 <= 100.0; 
r90 <= 100.0; 
r91+r96 <= 100.0; 
r91+r107 <= 100.0; 
r91 <= 100.0; 
r92+r111 <= 100.0; 
r92 <= 100.0; 
r93 <= 100.0; 
r94 <= 100.0; 
r94 <= 100.0; 
r95 <= 100.0; 
r95 <= 100.0; 
r95 <= 100.0; 
r96 <= 100.0; 
r96 <= 100.0; 
r97 <= 100.0; 
r97 <= 100.0; 
r97 <= 100.0; 
r98 <= 100.0; 
r98 <= 100.0; 
r98 <= 100.0; 
r99 <= 100.0; 
r100 <= 100.0; 
r101 <= 100.0; 
r101 <= 100.0; 
r101 <= 100.0; 
r102 <= 100.0; 
r102 <= 100.0; 
r103 <= 100.0; 
r103 <= 100.0; 
r103 <= 100.0; 
r104 <= 100.0; 
r104 <= 100.0; 
r105 <= 100.0; 
r105 <= 100.0; 
r106 <= 100.0; 
r106 <= 100.0; 
r107 <= 100.0; 
r107 <= 100.0; 
r108 <= 100.0; 
r108 <= 100.0; 
r109 <= 100.0; 
r110 <= 100.0; 
r110 <= 100.0; 
r110 <= 100.0; 
r111 <= 100.0; 
r112 <= 100.0; 
r113 <= 100.0; 
r114 <= 100.0; 
r114 <= 100.0; 
r115 <= 100.0; 
r115 <= 100.0; 
r116 <= 100.0; 
r116 <= 100.0; 
r116 <= 100.0; 
r117 <= 100.0; 
r117 <= 100.0; 
r117 <= 100.0; 
r118 <= 100.0; 
r118 <= 100.0; 
r118 <= 100.0; 
r119 <= 100.0; 
r119 <= 100.0; 
r0 - Z > 0.0; 
r1 - Z > 0.0; 
r2 - Z > 0.0; 
r3 - Z > 0.0; 
r4 - Z > 0.0; 
r5 - Z > 0.0; 
r6 - Z > 0.0; 
r7 - Z > 0.0; 
r8 - Z > 0.0; 
r9 - Z > 0.0; 
r10 - Z > 0.0; 
r11 - Z > 0.0; 
r12 - Z > 0.0; 
r13 - Z > 0.0; 
r14 - Z > 0.0; 
r15 - Z > 0.0; 
r16 - Z > 0.0; 
r17 - Z > 0.0; 
r18 - Z > 0.0; 
r19 - Z > 0.0; 
r20 - Z > 0.0; 
r21 - Z > 0.0; 
r22 - Z > 0.0; 
r23 - Z > 0.0; 
r24 - Z > 0.0; 
r25 - Z > 0.0; 
r26 - Z > 0.0; 
r27 - Z > 0.0; 
r28 - Z > 0.0; 
r29 - Z > 0.0; 
r30 - Z > 0.0; 
r31 - Z > 0.0; 
r32 - Z > 0.0; 
r33 - Z > 0.0; 
r34 - Z > 0.0; 
r35 - Z > 0.0; 
r36 - Z > 0.0; 
r37 - Z > 0.0; 
r38 - Z > 0.0; 
r39 - Z > 0.0; 
r40 - Z > 0.0; 
r41 - Z > 0.0; 
r42 - Z > 0.0; 
r43 - Z > 0.0; 
r44 - Z > 0.0; 
r45 - Z > 0.0; 
r46 - Z > 0.0; 
r47 - Z > 0.0; 
r48 - Z > 0.0; 
r49 - Z > 0.0; 
r50 - Z > 0.0; 
r51 - Z > 0.0; 
r52 - Z > 0.0; 
r53 - Z > 0.0; 
r54 - Z > 0.0; 
r55 - Z > 0.0; 
r56 - Z > 0.0; 
r57 - Z > 0.0; 
r58 - Z > 0.0; 
r59 - Z > 0.0; 
r60 - Z > 0.0; 
r61 - Z > 0.0; 
r62 - Z > 0.0; 
r63 - Z > 0.0; 
r64 - Z > 0.0; 
r65 - Z > 0.0; 
r66 - Z > 0.0; 
r67 - Z > 0.0; 
r68 - Z > 0.0; 
r69 - Z > 0.0; 
r70 - Z > 0.0; 
r71 - Z > 0.0; 
r72 - Z > 0.0; 
r73 - Z > 0.0; 
r74 - Z > 0.0; 
r75 - Z > 0.0; 
r76 - Z > 0.0; 
r77 - Z > 0.0; 
r78 - Z > 0.0; 
r79 - Z > 0.0; 
r80 - Z > 0.0; 
r81 - Z > 0.0; 
r82 - Z > 0.0; 
r83 - Z > 0.0; 
r84 - Z > 0.0; 
r85 - Z > 0.0; 
r86 - Z > 0.0; 
r87 - Z > 0.0; 
r88 - Z > 0.0; 
r89 - Z > 0.0; 
r90 - Z > 0.0; 
r91 - Z > 0.0; 
r92 - Z > 0.0; 
r93 - Z > 0.0; 
r94 - Z > 0.0; 
r95 - Z > 0.0; 
r96 - Z > 0.0; 
r97 - Z > 0.0; 
r98 - Z > 0.0; 
r99 - Z > 0.0; 
r100 - Z > 0.0; 
r101 - Z > 0.0; 
r102 - Z > 0.0; 
r103 - Z > 0.0; 
r104 - Z > 0.0; 
r105 - Z > 0.0; 
r106 - Z > 0.0; 
r107 - Z > 0.0; 
r108 - Z > 0.0; 
r109 - Z > 0.0; 
r110 - Z > 0.0; 
r111 - Z > 0.0; 
r112 - Z > 0.0; 
r113 - Z > 0.0; 
r114 - Z > 0.0; 
r115 - Z > 0.0; 
r116 - Z > 0.0; 
r117 - Z > 0.0; 
r118 - Z > 0.0; 
r119 - Z > 0.0; 
